# SPC/E water box benchmark
# manual at http://lammps.sandia.gov/doc/Manual.html

units		real # Kelvin, gram/mol, angstroms, femtoseconds, atmospheres, electronic charges	
atom_style	full # grosso modo for molecules
boundary        p p p 

#read_restart test.restart.*
read_data	data.in

pair_style	lj/cut/coul/long 10.0 10.0

#####Change from patinet start
kspace_style	ewald 1.0e-4

pair_coeff	4 4 0.15535 3.166 # epsilon sigma en kcal/mol et angstroms
pair_coeff	3 3 0.10005 3.154 # epsilon sigma en kcal/mol et angstroms
pair_coeff	1 1 0.11778 4.100 # epsilon sigma en kcal/mol et angstroms
pair_coeff	* 2 0.0000 0.0000	
pair_modify     mix arithmetic 
bond_style	harmonic
angle_style	harmonic
dihedral_style	none
improper_style	none

bond_coeff	1 1000.00 1.000
angle_coeff	1 100.0 109.47

special_bonds   lj/coul 0.0 0.0 0.5

#neighbor        2.0 bin
#neigh_modify	every 1 delay 10 check yes

fix		1 all shake 0.0001 20 0 b 1 a 1
fix		2 all nvt temp 300 300 200.0 # 100 time units = 100*timesteps recommandé

velocity	all create 300 432567 dist uniform

timestep	2.0 # femtoseconds

thermo_style    one
thermo		50
