# SPC/e water box
# 298.15 K, NVT

### Definition of variables
variable ns equal 1000000   # nanosecond
variable ps equal 1000      # picosecond
###

### User Config
variable T equal 300 # temperature for initial velocities and thermostat
variable ts equal 1.0 # time step for propagation in fs
variable equil_step equal ${ps}*2 # nvt equilibration traj length
variable prod_step equal ${ps}*10 # nve run traj length
###

# General

units		real	    # Kelvin, gram/mol, angstroms, femtoseconds, atmospheres, electronic charges
atom_style	full

boundary        p p p

# Force Calculations
pair_style	lj/cut/coul/long 10.5 10.5
pair_modify     mix arithmetic
pair_modify tail yes
kspace_style	pppm 1e-4

# Input file with system composition and force field
read_data	data.water

bond_style	harmonic
angle_style	harmonic
dihedral_style	none
improper_style	none

bond_coeff  1 553.0000 1.000
angle_coeff     1 55.0  109.47

neighbor        2.0 bin
neigh_modify	every 2 delay 0 check yes

# Output

thermo_style    custom step time etotal temp pe ke evdwl ecoul ebond eangle elong press
thermo		10

# Initialize velocities

velocity	all create $T 234233 dist gaussian

# Common setup for propagation

timestep ${ts}

# NVT equilibration

# .. apply thermostate
fix thermostat all nvt temp $T $T 100.0
# .. constrain water internal geometry (rigid molecules)
fix     1 all rattle 0.0001 20 0 b 1 a 1
# .. equilibration run
run  ${equil_step}
thermo_modify   lost warn

# NVE production run
unfix thermostat
unfix 1
fix 2 all nve
# .. print positions
dump xyz all xyz 10 traj.xyz # output trajectory
dump_modify xyz element O H # assign element names
# .. print velocities
dump vel all custom 10 velocities.xyz id vx vy vz
# .. on-the-fly mean-square displacement calculation
group oxygen type 1
compute 10 oxygen msd
fix 3 oxygen ave/time 1 1 10 c_10[4] file msd-H2O.dat
# .. production run
run  ${prod_step}
